100
1000
200
200
199
199
196
195
194
193
193
193
191
190
189
189
188
187
187
187
187
187
187
186
185
185
184
184
184
183
183
182
181
181
180
179
179
178
178
178
178
178
177
177
176
175
175
174
174
174
171
170
170
169
169
169
168
167
167
167
166
165
164
164
164
164
164
163
163
162
161
161
160
160
159
159
159
159
159
159
159
158
157
157
157
157
156
155
155
154
154
153
152
152
152
151
151
151
150
150
150
150
